NAME (null)_copy
ROWS
 N  OBJ
 E  B3E.VOBE
 E  B3P.VOBE
 E  B3R.VOBE
 L  NOM.3EBE
 L  NRO.3EBE
 L  N13.3EBE
 L  N14.3EBE
 L  N24.3EBE
 L  N36.3EBE
 L  NOM.3PBE
 L  NRO.3PBE
 L  N13.3PBE
 L  N14.3PBE
 L  N24.3PBE
 L  N36.3PBE
 L  NOM.3RBE
 L  NRO.3RBE
 L  N13.3RBE
 L  N14.3RBE
 L  N24.3RBE
 L  N36.3RBE
 E  WRO.3EBE
 E  WRO.3PBE
 E  WRO.3RBE
 L  XRV.3EBE
 L  X15.3EBE
 L  XRV.3PBE
 L  X15.3PBE
 L  XRV.3RBE
 L  X15.3RBE
 E  BCL1..BE
 E  BHL1..BE
 E  BCL2..BE
 E  BHL2..BE
 E  BLV2..BE
 E  BCL3..BE
 E  BHL3..BE
 E  BLV3..BE
 E  BCL4..BE
 E  BLV4..BE
COLUMNS
    BAL.3EBE  NOM.3EBE  -44.3391
    BAL.3EBE  B3E.VOBE  1
    BAL.3EBE  XRV.3EBE  8.2
    BAL.3EBE  N13.3EBE  -9
    BAL.3EBE  N14.3EBE  -12
    BAL.3EBE  N24.3EBE  -80
    BAL.3EBE  N36.3EBE  -99
    BAL.3EBE  X15.3EBE  16
    BAL.3EBE  WRO.3EBE  93.61705
    BCC.3EBE  NOM.3EBE  -40.031415
    BCC.3EBE  B3E.VOBE  1
    BCC.3EBE  XRV.3EBE  21.1
    BCC.3EBE  N13.3EBE  -116.8
    BCC.3EBE  N14.3EBE  -114
    BCC.3EBE  N24.3EBE  -100
    BCC.3EBE  N36.3EBE  -100
    BCC.3EBE  X15.3EBE  100
    BCC.3EBE  WRO.3EBE  99.22401
    BCH.3EBE  NOM.3EBE  -37.34868
    BCH.3EBE  B3E.VOBE  1
    BCH.3EBE  XRV.3EBE  2
    BCH.3EBE  N13.3EBE  14.8
    BCH.3EBE  N14.3EBE  12
    BCH.3EBE  N24.3EBE  -2.4
    BCH.3EBE  N36.3EBE  -90
    BCH.3EBE  X15.3EBE  -8.2
    BCH.3EBE  WRO.3EBE  83.80122
    BCL.3EBE  NOM.3EBE  -39.597105
    BCL.3EBE  B3E.VOBE  1
    BCL.3EBE  XRV.3EBE  8
    BCL.3EBE  N13.3EBE  -2
    BCL.3EBE  N14.3EBE  -9
    BCL.3EBE  N24.3EBE  -95
    BCL.3EBE  N36.3EBE  -100
    BCL.3EBE  X15.3EBE  43
    BCL.3EBE  WRO.3EBE  90.17511
    BHH.3EBE  NOM.3EBE  -39.28411
    BHH.3EBE  B3E.VOBE  1
    BHH.3EBE  XRV.3EBE  1
    BHH.3EBE  N13.3EBE  21.9
    BHH.3EBE  N14.3EBE  18
    BHH.3EBE  N24.3EBE  -4
    BHH.3EBE  N36.3EBE  -96.5
    BHH.3EBE  X15.3EBE  -12.5
    BHH.3EBE  WRO.3EBE  85.9962
    BHL.3EBE  NOM.3EBE  -41.46112
    BHL.3EBE  B3E.VOBE  1
    BHL.3EBE  XRV.3EBE  12.5
    BHL.3EBE  N13.3EBE  -37
    BHL.3EBE  N14.3EBE  -49
    BHL.3EBE  N24.3EBE  -98
    BHL.3EBE  N36.3EBE  -100
    BHL.3EBE  X15.3EBE  65
    BHL.3EBE  WRO.3EBE  86.96338
    BHX.3EBE  NOM.3EBE  -41.29637
    BHX.3EBE  B3E.VOBE  1
    BHX.3EBE  XRV.3EBE  1
    BHX.3EBE  N13.3EBE  21.9
    BHX.3EBE  N14.3EBE  18
    BHX.3EBE  N24.3EBE  -4
    BHX.3EBE  N36.3EBE  -96.5
    BHX.3EBE  X15.3EBE  -12
    BHX.3EBE  WRO.3EBE  93.1476
    BLV.3EBE  NOM.3EBE  -38.25323
    BLV.3EBE  B3E.VOBE  1
    BLV.3EBE  XRV.3EBE  12
    BLV.3EBE  N13.3EBE  -61
    BLV.3EBE  N14.3EBE  -68
    BLV.3EBE  N24.3EBE  -95
    BLV.3EBE  N36.3EBE  -100
    BLV.3EBE  X15.3EBE  79
    BLV.3EBE  WRO.3EBE  78.21025
    BN4.3EBE  NOM.3EBE  -44.17873
    BN4.3EBE  B3E.VOBE  1
    BN4.3EBE  XRV.3EBE  61.3
    BN4.3EBE  N13.3EBE  -145
    BN4.3EBE  N14.3EBE  -145
    BN4.3EBE  N24.3EBE  -100
    BN4.3EBE  N36.3EBE  -100
    BN4.3EBE  X15.3EBE  125
    BN4.3EBE  WRO.3EBE  94.25784
    BP8.3EBE  NOM.3EBE  -45.295235
    BP8.3EBE  B3E.VOBE  1
    BP8.3EBE  XRV.3EBE  6
    BP8.3EBE  N13.3EBE  -3.6
    BP8.3EBE  N14.3EBE  -4
    BP8.3EBE  N24.3EBE  -28.5
    BP8.3EBE  N36.3EBE  -97
    BP8.3EBE  X15.3EBE  6.2
    BP8.3EBE  WRO.3EBE  105.82863
    BAL.3PBE  NOM.3PBE  -44.3391
    BAL.3PBE  B3P.VOBE  1
    BAL.3PBE  XRV.3PBE  8.2
    BAL.3PBE  N13.3PBE  -9
    BAL.3PBE  N14.3PBE  -12
    BAL.3PBE  N24.3PBE  -80
    BAL.3PBE  N36.3PBE  -99
    BAL.3PBE  X15.3PBE  16
    BAL.3PBE  WRO.3PBE  93.61705
    BCC.3PBE  NOM.3PBE  -40.031415
    BCC.3PBE  B3P.VOBE  1
    BCC.3PBE  XRV.3PBE  21.1
    BCC.3PBE  N13.3PBE  -116.8
    BCC.3PBE  N14.3PBE  -114
    BCC.3PBE  N24.3PBE  -100
    BCC.3PBE  N36.3PBE  -100
    BCC.3PBE  X15.3PBE  100
    BCC.3PBE  WRO.3PBE  99.22401
    BCH.3PBE  NOM.3PBE  -37.34868
    BCH.3PBE  B3P.VOBE  1
    BCH.3PBE  XRV.3PBE  2
    BCH.3PBE  N13.3PBE  14.8
    BCH.3PBE  N14.3PBE  12
    BCH.3PBE  N24.3PBE  -2.4
    BCH.3PBE  N36.3PBE  -90
    BCH.3PBE  X15.3PBE  -8.2
    BCH.3PBE  WRO.3PBE  83.80122
    BCL.3PBE  NOM.3PBE  -39.597105
    BCL.3PBE  B3P.VOBE  1
    BCL.3PBE  XRV.3PBE  8
    BCL.3PBE  N13.3PBE  -2
    BCL.3PBE  N14.3PBE  -9
    BCL.3PBE  N24.3PBE  -95
    BCL.3PBE  N36.3PBE  -100
    BCL.3PBE  X15.3PBE  43
    BCL.3PBE  WRO.3PBE  90.17511
    BHH.3PBE  NOM.3PBE  -39.28411
    BHH.3PBE  B3P.VOBE  1
    BHH.3PBE  XRV.3PBE  1
    BHH.3PBE  N13.3PBE  21.9
    BHH.3PBE  N14.3PBE  18
    BHH.3PBE  N24.3PBE  -4
    BHH.3PBE  N36.3PBE  -96.5
    BHH.3PBE  X15.3PBE  -12.5
    BHH.3PBE  WRO.3PBE  85.9962
    BHL.3PBE  NOM.3PBE  -41.46112
    BHL.3PBE  B3P.VOBE  1
    BHL.3PBE  XRV.3PBE  12.5
    BHL.3PBE  N13.3PBE  -37
    BHL.3PBE  N14.3PBE  -49
    BHL.3PBE  N24.3PBE  -98
    BHL.3PBE  N36.3PBE  -100
    BHL.3PBE  X15.3PBE  65
    BHL.3PBE  WRO.3PBE  86.96338
    BHX.3PBE  NOM.3PBE  -41.29637
    BHX.3PBE  B3P.VOBE  1
    BHX.3PBE  XRV.3PBE  1
    BHX.3PBE  N13.3PBE  21.9
    BHX.3PBE  N14.3PBE  18
    BHX.3PBE  N24.3PBE  -4
    BHX.3PBE  N36.3PBE  -96.5
    BHX.3PBE  X15.3PBE  -12
    BHX.3PBE  WRO.3PBE  93.1476
    BLV.3PBE  NOM.3PBE  -38.25323
    BLV.3PBE  B3P.VOBE  1
    BLV.3PBE  XRV.3PBE  12
    BLV.3PBE  N13.3PBE  -61
    BLV.3PBE  N14.3PBE  -68
    BLV.3PBE  N24.3PBE  -95
    BLV.3PBE  N36.3PBE  -100
    BLV.3PBE  X15.3PBE  79
    BLV.3PBE  WRO.3PBE  78.21025
    BN4.3PBE  NOM.3PBE  -44.17873
    BN4.3PBE  B3P.VOBE  1
    BN4.3PBE  XRV.3PBE  61.3
    BN4.3PBE  N13.3PBE  -145
    BN4.3PBE  N14.3PBE  -145
    BN4.3PBE  N24.3PBE  -100
    BN4.3PBE  N36.3PBE  -100
    BN4.3PBE  X15.3PBE  125
    BN4.3PBE  WRO.3PBE  94.25784
    BP8.3PBE  NOM.3PBE  -45.295235
    BP8.3PBE  B3P.VOBE  1
    BP8.3PBE  XRV.3PBE  6
    BP8.3PBE  N13.3PBE  -3.6
    BP8.3PBE  N14.3PBE  -4
    BP8.3PBE  N24.3PBE  -28.5
    BP8.3PBE  N36.3PBE  -97
    BP8.3PBE  X15.3PBE  6.2
    BP8.3PBE  WRO.3PBE  105.82863
    BAL.3RBE  NOM.3RBE  -44.3391
    BAL.3RBE  B3R.VOBE  1
    BAL.3RBE  XRV.3RBE  8.2
    BAL.3RBE  N13.3RBE  -9
    BAL.3RBE  N14.3RBE  -12
    BAL.3RBE  N24.3RBE  -80
    BAL.3RBE  N36.3RBE  -99
    BAL.3RBE  X15.3RBE  16
    BAL.3RBE  WRO.3RBE  93.61705
    BCC.3RBE  NOM.3RBE  -40.031415
    BCC.3RBE  B3R.VOBE  1
    BCC.3RBE  XRV.3RBE  21.1
    BCC.3RBE  N13.3RBE  -116.8
    BCC.3RBE  N14.3RBE  -114
    BCC.3RBE  N24.3RBE  -100
    BCC.3RBE  N36.3RBE  -100
    BCC.3RBE  X15.3RBE  100
    BCC.3RBE  WRO.3RBE  99.22401
    BCH.3RBE  NOM.3RBE  -37.34868
    BCH.3RBE  B3R.VOBE  1
    BCH.3RBE  XRV.3RBE  2
    BCH.3RBE  N13.3RBE  14.8
    BCH.3RBE  N14.3RBE  12
    BCH.3RBE  N24.3RBE  -2.4
    BCH.3RBE  N36.3RBE  -90
    BCH.3RBE  X15.3RBE  -8.2
    BCH.3RBE  WRO.3RBE  83.80122
    BCL.3RBE  NOM.3RBE  -39.597105
    BCL.3RBE  B3R.VOBE  1
    BCL.3RBE  XRV.3RBE  8
    BCL.3RBE  N13.3RBE  -2
    BCL.3RBE  N14.3RBE  -9
    BCL.3RBE  N24.3RBE  -95
    BCL.3RBE  N36.3RBE  -100
    BCL.3RBE  X15.3RBE  43
    BCL.3RBE  WRO.3RBE  90.17511
    BHH.3RBE  NOM.3RBE  -39.28411
    BHH.3RBE  B3R.VOBE  1
    BHH.3RBE  XRV.3RBE  1
    BHH.3RBE  N13.3RBE  21.9
    BHH.3RBE  N14.3RBE  18
    BHH.3RBE  N24.3RBE  -4
    BHH.3RBE  N36.3RBE  -96.5
    BHH.3RBE  X15.3RBE  -12.5
    BHH.3RBE  WRO.3RBE  85.9962
    BHL.3RBE  NOM.3RBE  -41.46112
    BHL.3RBE  B3R.VOBE  1
    BHL.3RBE  XRV.3RBE  12.5
    BHL.3RBE  N13.3RBE  -37
    BHL.3RBE  N14.3RBE  -49
    BHL.3RBE  N24.3RBE  -98
    BHL.3RBE  N36.3RBE  -100
    BHL.3RBE  X15.3RBE  65
    BHL.3RBE  WRO.3RBE  86.96338
    BHX.3RBE  NOM.3RBE  -41.29637
    BHX.3RBE  B3R.VOBE  1
    BHX.3RBE  XRV.3RBE  1
    BHX.3RBE  N13.3RBE  21.9
    BHX.3RBE  N14.3RBE  18
    BHX.3RBE  N24.3RBE  -4
    BHX.3RBE  N36.3RBE  -96.5
    BHX.3RBE  X15.3RBE  -12
    BHX.3RBE  WRO.3RBE  93.1476
    BLV.3RBE  NOM.3RBE  -38.25323
    BLV.3RBE  B3R.VOBE  1
    BLV.3RBE  XRV.3RBE  12
    BLV.3RBE  N13.3RBE  -61
    BLV.3RBE  N14.3RBE  -68
    BLV.3RBE  N24.3RBE  -95
    BLV.3RBE  N36.3RBE  -100
    BLV.3RBE  X15.3RBE  79
    BLV.3RBE  WRO.3RBE  78.21025
    BN4.3RBE  NOM.3RBE  -44.17873
    BN4.3RBE  B3R.VOBE  1
    BN4.3RBE  XRV.3RBE  61.3
    BN4.3RBE  N13.3RBE  -145
    BN4.3RBE  N14.3RBE  -145
    BN4.3RBE  N24.3RBE  -100
    BN4.3RBE  N36.3RBE  -100
    BN4.3RBE  X15.3RBE  125
    BN4.3RBE  WRO.3RBE  94.25784
    BP8.3RBE  NOM.3RBE  -45.295235
    BP8.3RBE  B3R.VOBE  1
    BP8.3RBE  XRV.3RBE  6
    BP8.3RBE  N13.3RBE  -3.6
    BP8.3RBE  N14.3RBE  -4
    BP8.3RBE  N24.3RBE  -28.5
    BP8.3RBE  N36.3RBE  -97
    BP8.3RBE  X15.3RBE  6.2
    BP8.3RBE  WRO.3RBE  105.82863
    JCL1IOBE  OBJ       -2
    JCL1IOBE  BCL1..BE  1
    JHL1IOBE  OBJ       -2
    JHL1IOBE  BHL1..BE  1
    JLV1IOBE  OBJ       -1.998
    JLV1IOBE  BLV2..BE  1
    JCL1MXBE  OBJ       0.002
    JCL1MXBE  BCL1..BE  -1
    JCL1MXBE  BCL2..BE  1
    JHL1MXBE  OBJ       0.002
    JHL1MXBE  BHL1..BE  -1
    JHL1MXBE  BHL2..BE  1
    JCL1TGBE  OBJ       -0.002
    JCL1TGBE  BCL1..BE  -1
    JCL1TGBE  BCL2..BE  1
    JHL1TGBE  OBJ       -0.002
    JHL1TGBE  BHL1..BE  -1
    JHL1TGBE  BHL2..BE  1
    QVO13EBE  B3E.VOBE  -1
    QVO13EBE  XRV.3EBE  -8.7
    QVO13EBE  N13.3EBE  10
    QVO13EBE  N14.3EBE  10
    QVO13EBE  N24.3EBE  50
    QVO13EBE  N36.3EBE  90
    QVO13EBE  X15.3EBE  -47
    QVO13EBE  NOM.3EBE  89
    QVO13EBE  NRO.3EBE  93
    WRO13PBE  WRO.3PBE  -1
    WRO13PBE  NOM.3PBE  -0.5
    WRO13PBE  NRO.3PBE  -1
    JCL2MXBE  OBJ       0.002
    JCL2MXBE  BCL2..BE  -1
    JCL2MXBE  BCL3..BE  1
    JHL2MXBE  OBJ       0.002
    JHL2MXBE  BHL2..BE  -1
    JHL2MXBE  BHL3..BE  1
    JLV2MXBE  OBJ       0.002
    JLV2MXBE  BLV2..BE  -1
    JLV2MXBE  BLV3..BE  1
    JCL2TGBE  OBJ       -0.002
    JCL2TGBE  BCL2..BE  -1
    JCL2TGBE  BCL3..BE  1
    JHL2TGBE  OBJ       -0.002
    JHL2TGBE  BHL2..BE  -1
    JHL2TGBE  BHL3..BE  1
    JLV2TGBE  OBJ       -0.002
    JLV2TGBE  BLV2..BE  -1
    JLV2TGBE  BLV3..BE  1
    WRO23RBE  WRO.3RBE  -1
    WRO23RBE  NOM.3RBE  -0.5
    WRO23RBE  NRO.3RBE  -1
    JCL3MXBE  OBJ       0.002
    JCL3MXBE  BCL3..BE  -1
    JCL3MXBE  BCL4..BE  1
    JLV3MXBE  OBJ       0.002
    JLV3MXBE  BLV3..BE  -1
    JLV3MXBE  BLV4..BE  1
    JCL3TGBE  OBJ       -0.002
    JCL3TGBE  BCL3..BE  -1
    JCL3TGBE  BCL4..BE  1
    JLV3TGBE  OBJ       -0.002
    JLV3TGBE  BLV3..BE  -1
    JLV3TGBE  BLV4..BE  1
    QVO33PBE  B3P.VOBE  -1
    QVO33PBE  XRV.3PBE  -8.7
    QVO33PBE  N13.3PBE  10
    QVO33PBE  N14.3PBE  10
    QVO33PBE  N24.3PBE  50
    QVO33PBE  N36.3PBE  90
    QVO33PBE  X15.3PBE  -47
    QVO33PBE  NOM.3PBE  85
    QVO33PBE  NRO.3PBE  89
    QVO33RBE  B3R.VOBE  -1
    QVO33RBE  XRV.3RBE  -8.7
    QVO33RBE  N13.3RBE  10
    QVO33RBE  N14.3RBE  10
    QVO33RBE  N24.3RBE  50
    QVO33RBE  N36.3RBE  90
    QVO33RBE  X15.3RBE  -47
    QVO33RBE  NOM.3RBE  88
    QVO33RBE  NRO.3RBE  91
    WRO33EBE  WRO.3EBE  -1
    WRO33EBE  NOM.3EBE  -0.5
    WRO33EBE  NRO.3EBE  -1
    JCL4MXBE  OBJ       0.1
    JCL4MXBE  BCL4..BE  -1
    JHL4MXBE  OBJ       0.098
    JHL4MXBE  BHL3..BE  -1
    JLV4MXBE  OBJ       0.1
    JLV4MXBE  BLV4..BE  -1
RHS
    RHS1      OBJ       1.5249999999999994e+02
BOUNDS
 LO BND1      JCL1IOBE  4.994
 UP BND1      JCL1IOBE  29
 LO BND1      JHL1IOBE  9.989
 UP BND1      JHL1IOBE  20
 LO BND1      JLV1IOBE  4.994
 UP BND1      JLV1IOBE  28
 UP BND1      JCL1MXBE  24.025
 UP BND1      JHL1MXBE  10.011
 LO BND1      JCL1TGBE  5
 UP BND1      JCL1TGBE  20
 LO BND1      JHL1TGBE  10
 UP BND1      JHL1TGBE  18
 UP BND1      JCL2MXBE  39.04
 UP BND1      JHL2MXBE  10.011
 UP BND1      JLV2MXBE  23.024
 LO BND1      JCL2TGBE  5
 UP BND1      JCL2TGBE  15
 LO BND1      JHL2TGBE  10
 UP BND1      JHL2TGBE  15
 LO BND1      JLV2TGBE  5
 UP BND1      JLV2TGBE  8
 UP BND1      JCL3MXBE  15.016
 UP BND1      JLV3MXBE  15.016
 LO BND1      JCL3TGBE  5
 UP BND1      JCL3TGBE  15
 LO BND1      JLV3TGBE  5
 UP BND1      JLV3TGBE  8
 LO BND1      JCL4MXBE  4.994
 UP BND1      JCL4MXBE  20
 LO BND1      JHL4MXBE  9.989
 UP BND1      JHL4MXBE  20
 LO BND1      JLV4MXBE  4.994
 UP BND1      JLV4MXBE  20
ENDATA
